(set-logic LIA)
(synth-fun next ((brake Int) (distance Int) (speed Int) (throttle Int) (ignition Bool) (time Int) ) Int
	((Start Int) (Var Int) (StartBool Bool))
	((Start Int (
				 5
				 6
				 (ite StartBool Start Start)))

	(Var Int (
			 0
			 1
			 2
			 6
			 7
			 711
			 938
			 brake
			 distance
			 speed
			 throttle
			 time
			 (+ Var Var)						
			 (- Var Var)						
			 (* Var Var)))

	(StartBool Bool (
				 	 ignition
					(= Var Var)						
					(>= Var Var)						
					(<= Var Var)						
					(and StartBool StartBool)			
					(or  StartBool StartBool)				
					(not StartBool)))))

(constraint (= (next 0 0 4 0 true 1063 ) 5))
(constraint (= (next 0 0 3 0 true 173 ) 6))
(constraint (= (next 0 2 13 0 true 1579 ) 5))

(check-synth)
